8439
8329
8415
8450
8509
8287
8541
8492
8444
8495
8362
8472
8556
8402
8393
8406
8171
8330
8519
8222
8445
8421
8557
8355
8304
8478
8255
8347
8323
8422
8306
8285
8469
8389
8451
8443
8305
8391
8441
8305
8402
8389
8330
8372
8526
8520
8507
8503
8420
8285
8278
8419
8410
8454
8404
8377
8261
8276
8335
8469
8444
8513
8248
8445
8283
8462
8467
8459
8464
8354
8354
8510
8392
8405
8463
8378
8481
8447
8432
8332
8437
8447
8372
8346
8215
8251
8331
8465
8435
8480
8323
8286
8453
8491
8518
8344
8525
8285
8505
8279
